00:00.0 clingo version 5.5.1
00:00.0 Reading from ...ols/../encodings/CTW_nat_optimal_V1.lp ...
29:59.933 UNKNOWN
30:00.33 
30:00.34 TIME LIMIT   : 1
30:00.49 Models       : 0+
30:00.49 Calls        : 1
30:00.49 Time         : 1800.066s (Solving: 0.00s 1st Model: 0.00s Unsat: 0.00s)
30:00.50 CPU Time     : 116.864s
